
maximize cost: 17 e_2_2_3_124_0_17 + 28 e_5_5_6_141_0_28 + 21 e_8_8_9_169_0_21 + 21 e_9_8_10_168_0_21
 + 28 e_10_9_11_185_0_28 + 28 e_11_9_12_184_0_28 + 30 e_12_10_13_177_0_30 + 7 e_13_11_14_202_0_7 + 34 e_14_12_15_193_0_34
 + 8 e_16_13_16_238_0_8 + 20 e_21_19_21_211_0_20 + 20 e_22_19_22_212_0_20 + 60 e_23_20_23_154_0_60 + 7 e_24_21_24_207_0_7
 + 99 e_31_28_31_219_0_99 + 15 e_33_29_32_130_0_15 + 11 e_35_30_33_211_1_11 + 11 e_36_30_34_212_1_11 + 5 e_37_33_35_207_1_5

subject to

e_0_0_0_0_0_0 = 0


e_0_0_0_0_1_0 = 1


e_1_1_2_120_0_0 = 1


e_34_32_18446744073709551615_0_0_0 = 1


e_1_1_2_120_0_0 - e_2_2_3_124_0_17 = 0
e_2_2_3_124_0_17 - e_3_3_4_125_0_0 = 0
e_3_3_4_125_0_0 - e_4_4_5_137_0_0 = 0
e_4_4_5_137_0_0 - e_5_5_6_141_0_28 = 0
e_5_5_6_141_0_28 - e_6_6_7_142_0_0 = 0
e_6_6_7_142_0_0 - e_7_7_8_167_0_0 = 0
e_7_7_8_167_0_0 - e_8_8_9_169_0_21 - e_9_8_10_168_0_21 = 0
e_8_8_9_169_0_21 - e_10_9_11_185_0_28 - e_11_9_12_184_0_28 = 0
e_9_8_10_168_0_21 - e_12_10_13_177_0_30 = 0
e_10_9_11_185_0_28 - e_13_11_14_202_0_7 = 0
e_11_9_12_184_0_28 - e_14_12_15_193_0_34 = 0
e_12_10_13_177_0_30 + e_15_15_13_0_0_0 + e_32_31_13_0_0_0 - e_16_13_16_238_0_8 = 0
e_13_11_14_202_0_7 - e_17_14_17_301_0_0 = 0
e_14_12_15_193_0_34 - e_15_15_13_0_0_0 = 0
e_16_13_16_238_0_8 - e_18_16_18_241_0_0 = 0
e_17_14_17_301_0_0 - e_19_17_19_296_0_0 = 0
e_18_16_18_241_0_0 - e_20_18_20_143_0_0 = 0
e_19_17_19_296_0_0 - e_21_19_21_211_0_20 - e_22_19_22_212_0_20 = 0
e_20_18_20_143_0_0 - e_23_20_23_154_0_60 = 0
e_21_19_21_211_0_20 - e_24_21_24_207_0_7 = 0
e_22_19_22_212_0_20 + e_43_39_22_0_0_0 - e_25_22_25_300_0_0 = 0
e_23_20_23_154_0_60 - e_26_23_26_240_0_0 = 0
e_24_21_24_207_0_7 - e_27_24_27_295_0_0 = 0
e_25_22_25_300_0_0 - e_28_25_28_302_0_0 = 0
e_26_23_26_240_0_0 - e_29_26_29_126_0_0 = 0
e_27_24_27_295_0_0 + e_41_38_27_0_0_0 - e_30_27_30_296_1_0 = 0
e_28_25_28_302_0_0 - e_31_28_31_219_0_99 = 0
e_29_26_29_126_0_0 - e_33_29_32_130_0_15 = 0
e_30_27_30_296_1_0 - e_35_30_33_211_1_11 - e_36_30_34_212_1_11 = 0
e_31_28_31_219_0_99 - e_32_31_13_0_0_0 = 0
e_33_29_32_130_0_15 - e_34_32_18446744073709551615_0_0_0 = 0
e_35_30_33_211_1_11 - e_37_33_35_207_1_5 = 0
e_36_30_34_212_1_11 + e_45_40_34_0_0_0 - e_38_34_36_293_0_0 - e_39_34_37_293_1_0 = 0
e_37_33_35_207_1_5 - e_40_35_38_295_1_0 = 0
e_38_34_36_293_0_0 - e_42_36_39_294_0_0 = 0
e_39_34_37_293_1_0 - e_44_37_40_294_1_0 = 0
e_40_35_38_295_1_0 - e_41_38_27_0_0_0 = 0
e_42_36_39_294_0_0 - e_43_39_22_0_0_0 = 0
e_44_37_40_294_1_0 - e_45_40_34_0_0_0 = 0


+1 e_26_23_26_240_0_0 -1 e_3_3_4_125_0_0 = 0
+1 e_18_16_18_241_0_0 -1 e_6_6_7_142_0_0 = 0
+1 e_38_34_36_293_0_0 -1 e_27_24_27_295_0_0 = 0
+1 e_39_34_37_293_1_0 -1 e_40_35_38_295_1_0 = 0
+1 e_25_22_25_300_0_0 -1 e_17_14_17_301_0_0 = 0



+1 e_27_24_27_295_0_0 +1 e_40_35_38_295_1_0 -10 e_17_14_17_301_0_0 <= 0
+1 e_40_35_38_295_1_0 -9 e_27_24_27_295_0_0 <= 0
+1 e_40_35_38_295_1_0 -9 e_17_14_17_301_0_0 <= 0


general
e_0_0_0_0_0_0
e_0_0_0_0_1_0
e_1_1_2_120_0_0
e_2_2_3_124_0_17
e_3_3_4_125_0_0
e_4_4_5_137_0_0
e_5_5_6_141_0_28
e_6_6_7_142_0_0
e_7_7_8_167_0_0
e_8_8_9_169_0_21
e_9_8_10_168_0_21
e_10_9_11_185_0_28
e_11_9_12_184_0_28
e_12_10_13_177_0_30
e_13_11_14_202_0_7
e_14_12_15_193_0_34
e_16_13_16_238_0_8
e_17_14_17_301_0_0
e_15_15_13_0_0_0
e_18_16_18_241_0_0
e_19_17_19_296_0_0
e_20_18_20_143_0_0
e_21_19_21_211_0_20
e_22_19_22_212_0_20
e_23_20_23_154_0_60
e_24_21_24_207_0_7
e_25_22_25_300_0_0
e_26_23_26_240_0_0
e_27_24_27_295_0_0
e_28_25_28_302_0_0
e_29_26_29_126_0_0
e_30_27_30_296_1_0
e_31_28_31_219_0_99
e_33_29_32_130_0_15
e_35_30_33_211_1_11
e_36_30_34_212_1_11
e_32_31_13_0_0_0
e_34_32_18446744073709551615_0_0_0
e_37_33_35_207_1_5
e_38_34_36_293_0_0
e_39_34_37_293_1_0
e_40_35_38_295_1_0
e_42_36_39_294_0_0
e_44_37_40_294_1_0
e_41_38_27_0_0_0
e_43_39_22_0_0_0
e_45_40_34_0_0_0


end
